p cnf 1096 2778
-1 -2 0
1 2 0
-3 -4 0
3 4 0
-5 -6 0
5 6 0
-7 -8 0
7 8 0
-9 -10 0
9 10 0
-11 -12 0
11 12 0
-13 -14 0
13 14 0
-15 -16 0
15 16 0
-17 -18 0
17 18 0
-19 -20 0
19 20 0
-21 -22 0
21 22 0
12 -23 0
7 -23 0
-12 -7 23 0
19 -24 0
25 -24 0
-19 -25 24 0
9 -26 0
22 -26 0
-9 -22 26 0
11 -27 0
8 -27 0
-11 -8 27 0
10 -28 0
21 -28 0
-10 -21 28 0
-29 -26 0
29 26 0
-30 -28 0
30 28 0
-31 -23 0
31 23 0
-32 -27 0
32 27 0
31 -33 0
32 -33 0
-31 -32 33 0
29 -34 0
30 -34 0
-29 -30 34 0
30 -35 0
29 -35 0
-30 -29 35 0
34 -36 0
27 -36 0
-34 -27 36 0
24 -37 0
35 -37 0
-24 -35 37 0
-38 -36 0
38 36 0
37 -39 0
33 -39 0
-37 -33 39 0
-40 -39 0
40 39 0
29 -41 0
38 -41 0
-29 -38 41 0
40 -42 0
41 -42 0
-40 -41 42 0
-43 -42 0
43 42 0
42 -44 0
10 -44 0
-42 -10 44 0
25 -45 0
42 -45 0
-25 -42 45 0
20 -46 0
42 -46 0
-20 -42 46 0
42 -47 0
22 -47 0
-42 -22 47 0
12 -48 0
42 -48 0
-12 -42 48 0
42 -49 0
8 -49 0
-42 -8 49 0
43 -50 0
22 -50 0
-43 -22 50 0
-51 -46 0
51 46 0
12 -52 0
43 -52 0
-12 -43 52 0
-53 -48 0
53 48 0
43 -54 0
8 -54 0
-43 -8 54 0
-55 -47 0
55 47 0
-56 -49 0
56 49 0
43 -57 0
10 -57 0
-43 -10 57 0
-58 -44 0
58 44 0
-59 -45 0
59 45 0
25 -60 0
43 -60 0
-25 -43 60 0
20 -61 0
43 -61 0
-20 -43 61 0
-62 -60 0
62 60 0
-63 -50 0
63 50 0
-64 -54 0
64 54 0
-65 -61 0
65 61 0
-66 -57 0
66 57 0
-67 -52 0
67 52 0
65 -68 0
59 -68 0
-65 -59 68 0
51 -69 0
62 -69 0
-51 -62 69 0
67 -70 0
56 -70 0
-67 -56 70 0
66 -71 0
55 -71 0
-66 -55 71 0
63 -72 0
58 -72 0
-63 -58 72 0
64 -73 0
53 -73 0
-64 -53 73 0
-74 -71 0
74 71 0
6 -75 0
73 -75 0
-6 -73 75 0
-76 -72 0
76 72 0
-77 -70 0
77 70 0
18 -78 0
72 -78 0
-18 -72 78 0
-79 -73 0
79 73 0
-80 -68 0
80 68 0
-81 -69 0
81 69 0
-82 -78 0
82 78 0
-83 -75 0
83 75 0
17 -84 0
76 -84 0
-17 -76 84 0
79 -85 0
5 -85 0
-79 -5 85 0
81 -86 0
13 -86 0
-81 -13 86 0
-87 -85 0
87 85 0
-88 -84 0
88 84 0
82 -89 0
88 -89 0
-82 -88 89 0
83 -90 0
87 -90 0
-83 -87 90 0
89 -91 0
85 -91 0
-89 -85 91 0
89 -92 0
86 -92 0
-89 -86 92 0
-93 -91 0
93 91 0
90 -94 0
92 -94 0
-90 -92 94 0
-95 -94 0
95 94 0
88 -96 0
93 -96 0
-88 -93 96 0
96 -97 0
95 -97 0
-96 -95 97 0
97 -98 0
14 -98 0
-97 -14 98 0
6 -99 0
97 -99 0
-6 -97 99 0
97 -100 0
81 -100 0
-97 -81 100 0
97 -101 0
79 -101 0
-97 -79 101 0
97 -102 0
76 -102 0
-97 -76 102 0
97 -103 0
18 -103 0
-97 -18 103 0
-104 -97 0
104 97 0
104 -105 0
81 -105 0
-104 -81 105 0
-106 -103 0
106 103 0
-107 -98 0
107 98 0
104 -108 0
14 -108 0
-104 -14 108 0
104 -109 0
76 -109 0
-104 -76 109 0
104 -110 0
18 -110 0
-104 -18 110 0
6 -111 0
104 -111 0
-6 -104 111 0
-112 -100 0
112 100 0
-113 -101 0
113 101 0
-114 -99 0
114 99 0
-115 -102 0
115 102 0
79 -116 0
104 -116 0
-79 -104 116 0
-117 -111 0
117 111 0
-118 -116 0
118 116 0
-119 -109 0
119 109 0
-120 -108 0
120 108 0
-121 -110 0
121 110 0
-122 -105 0
122 105 0
119 -123 0
106 -123 0
-119 -106 123 0
122 -124 0
107 -124 0
-122 -107 124 0
118 -125 0
114 -125 0
-118 -114 125 0
117 -126 0
113 -126 0
-117 -113 126 0
115 -127 0
121 -127 0
-115 -121 127 0
120 -128 0
112 -128 0
-120 -112 128 0
-129 -123 0
129 123 0
-130 -127 0
130 127 0
126 -131 0
77 -131 0
-126 -77 131 0
16 -132 0
123 -132 0
-16 -123 132 0
-133 -125 0
133 125 0
127 -134 0
74 -134 0
-127 -74 134 0
125 -135 0
2 -135 0
-125 -2 135 0
-136 -126 0
136 126 0
80 -137 0
128 -137 0
-80 -128 137 0
-138 -128 0
138 128 0
-139 -124 0
139 124 0
-140 -132 0
140 132 0
-141 -134 0
141 134 0
15 -142 0
129 -142 0
-15 -129 142 0
136 -143 0
70 -143 0
-136 -70 143 0
-144 -135 0
144 135 0
-145 -131 0
145 131 0
139 -146 0
3 -146 0
-139 -3 146 0
1 -147 0
133 -147 0
-1 -133 147 0
130 -148 0
71 -148 0
-130 -71 148 0
-149 -148 0
149 148 0
-150 -147 0
150 147 0
-151 -143 0
151 143 0
-152 -142 0
152 142 0
150 -153 0
144 -153 0
-150 -144 153 0
152 -154 0
140 -154 0
-152 -140 154 0
151 -155 0
145 -155 0
-151 -145 155 0
140 -156 0
152 -156 0
-140 -152 156 0
149 -157 0
141 -157 0
-149 -141 157 0
154 -158 0
146 -158 0
-154 -146 158 0
157 -159 0
137 -159 0
-157 -137 159 0
147 -160 0
156 -160 0
-147 -156 160 0
157 -161 0
131 -161 0
-157 -131 161 0
153 -162 0
158 -162 0
-153 -158 162 0
155 -163 0
159 -163 0
-155 -159 163 0
-164 -160 0
164 160 0
-165 -161 0
165 161 0
164 -166 0
152 -166 0
-164 -152 166 0
141 -167 0
165 -167 0
-141 -165 167 0
-168 -162 0
168 162 0
-169 -163 0
169 163 0
167 -170 0
169 -170 0
-167 -169 170 0
166 -171 0
168 -171 0
-166 -168 171 0
129 -172 0
171 -172 0
-129 -171 172 0
80 -173 0
170 -173 0
-80 -170 173 0
139 -174 0
171 -174 0
-139 -171 174 0
170 -175 0
74 -175 0
-170 -74 175 0
16 -176 0
171 -176 0
-16 -171 176 0
170 -177 0
77 -177 0
-170 -77 177 0
130 -178 0
170 -178 0
-130 -170 178 0
-179 -170 0
179 170 0
4 -180 0
171 -180 0
-4 -171 180 0
170 -181 0
138 -181 0
-170 -138 181 0
171 -182 0
2 -182 0
-171 -2 182 0
170 -183 0
136 -183 0
-170 -136 183 0
-184 -171 0
184 171 0
171 -185 0
133 -185 0
-171 -133 185 0
-186 -176 0
186 176 0
2 -187 0
184 -187 0
-2 -184 187 0
129 -188 0
184 -188 0
-129 -184 188 0
-189 -185 0
189 185 0
-190 -181 0
190 181 0
-191 -178 0
191 178 0
184 -192 0
133 -192 0
-184 -133 192 0
130 -193 0
179 -193 0
-130 -179 193 0
-194 -174 0
194 174 0
179 -195 0
138 -195 0
-179 -138 195 0
-196 -183 0
196 183 0
4 -197 0
184 -197 0
-4 -184 197 0
80 -198 0
179 -198 0
-80 -179 198 0
179 -199 0
77 -199 0
-179 -77 199 0
-200 -180 0
200 180 0
179 -201 0
136 -201 0
-179 -136 201 0
74 -202 0
179 -202 0
-74 -179 202 0
16 -203 0
184 -203 0
-16 -184 203 0
-204 -177 0
204 177 0
-205 -182 0
205 182 0
-206 -173 0
206 173 0
-207 -172 0
207 172 0
139 -208 0
184 -208 0
-139 -184 208 0
-209 -175 0
209 175 0
-210 -192 0
210 192 0
-211 -193 0
211 193 0
-212 -202 0
212 202 0
-213 -198 0
213 198 0
-214 -187 0
214 187 0
-215 -201 0
215 201 0
-216 -203 0
216 203 0
-217 -197 0
217 197 0
-218 -208 0
218 208 0
-219 -188 0
219 188 0
-220 -195 0
220 195 0
-221 -199 0
221 199 0
218 -222 0
200 -222 0
-218 -200 222 0
217 -223 0
194 -223 0
-217 -194 223 0
186 -224 0
219 -224 0
-186 -219 224 0
215 -225 0
204 -225 0
-215 -204 225 0
189 -226 0
214 -226 0
-189 -214 226 0
213 -227 0
190 -227 0
-213 -190 227 0
211 -228 0
209 -228 0
-211 -209 228 0
212 -229 0
191 -229 0
-212 -191 229 0
216 -230 0
207 -230 0
-216 -207 230 0
210 -231 0
205 -231 0
-210 -205 231 0
206 -232 0
220 -232 0
-206 -220 232 0
196 -233 0
221 -233 0
-196 -221 233 0
-234 -223 0
234 223 0
-235 -232 0
235 232 0
-236 -224 0
236 224 0
-237 -231 0
237 231 0
-238 -228 0
238 228 0
-239 -227 0
239 227 0
-240 -230 0
240 230 0
-241 -222 0
241 222 0
-242 -226 0
242 226 0
-243 -225 0
243 225 0
-244 -229 0
244 229 0
-245 -233 0
245 233 0
226 -246 0
245 -246 0
-226 -245 246 0
233 -247 0
242 -247 0
-233 -242 247 0
223 -248 0
239 -248 0
-223 -239 248 0
229 -249 0
240 -249 0
-229 -240 249 0
230 -250 0
244 -250 0
-230 -244 250 0
-251 -247 0
251 247 0
-252 -249 0
252 249 0
-253 -250 0
253 250 0
-254 -246 0
254 246 0
253 -255 0
252 -255 0
-253 -252 255 0
251 -256 0
254 -256 0
-251 -254 256 0
252 -257 0
253 -257 0
-252 -253 257 0
255 -258 0
246 -258 0
-255 -246 258 0
248 -259 0
257 -259 0
-248 -257 259 0
259 -260 0
256 -260 0
-259 -256 260 0
-261 -258 0
261 258 0
-262 -260 0
262 260 0
253 -263 0
261 -263 0
-253 -261 263 0
262 -264 0
263 -264 0
-262 -263 264 0
244 -265 0
264 -265 0
-244 -264 265 0
264 -266 0
242 -266 0
-264 -242 266 0
240 -267 0
264 -267 0
-240 -264 267 0
-268 -264 0
268 264 0
264 -269 0
245 -269 0
-264 -245 269 0
264 -270 0
234 -270 0
-264 -234 270 0
264 -271 0
239 -271 0
-264 -239 271 0
-272 -269 0
272 269 0
-273 -265 0
273 265 0
-274 -267 0
274 267 0
240 -275 0
268 -275 0
-240 -268 275 0
244 -276 0
268 -276 0
-244 -268 276 0
268 -277 0
242 -277 0
-268 -242 277 0
-278 -266 0
278 266 0
245 -279 0
268 -279 0
-245 -268 279 0
268 -280 0
234 -280 0
-268 -234 280 0
-281 -270 0
281 270 0
268 -282 0
239 -282 0
-268 -239 282 0
-283 -271 0
283 271 0
-284 -282 0
284 282 0
-285 -280 0
285 280 0
-286 -276 0
286 276 0
-287 -275 0
287 275 0
-288 -279 0
288 279 0
-289 -277 0
289 277 0
288 -290 0
278 -290 0
-288 -278 290 0
286 -291 0
274 -291 0
-286 -274 291 0
285 -292 0
283 -292 0
-285 -283 292 0
281 -293 0
284 -293 0
-281 -284 293 0
289 -294 0
272 -294 0
-289 -272 294 0
287 -295 0
273 -295 0
-287 -273 295 0
-296 -291 0
296 291 0
-297 -292 0
297 292 0
295 -298 0
238 -298 0
-295 -238 298 0
243 -299 0
294 -299 0
-243 -294 299 0
292 -300 0
235 -300 0
-292 -235 300 0
-301 -290 0
301 290 0
-302 -293 0
302 293 0
-303 -295 0
303 295 0
-304 -294 0
304 294 0
225 -305 0
304 -305 0
-225 -304 305 0
-306 -298 0
306 298 0
-307 -299 0
307 299 0
303 -308 0
228 -308 0
-303 -228 308 0
-309 -308 0
309 308 0
-310 -305 0
310 305 0
310 -311 0
307 -311 0
-310 -307 311 0
309 -312 0
306 -312 0
-309 -306 312 0
312 -313 0
299 -313 0
-312 -299 313 0
312 -314 0
300 -314 0
-312 -300 314 0
311 -315 0
314 -315 0
-311 -314 315 0
-316 -313 0
316 313 0
-317 -315 0
317 315 0
306 -318 0
316 -318 0
-306 -316 318 0
318 -319 0
317 -319 0
-318 -317 319 0
319 -320 0
238 -320 0
-319 -238 320 0
319 -321 0
243 -321 0
-319 -243 321 0
319 -322 0
304 -322 0
-319 -304 322 0
-323 -319 0
323 319 0
319 -324 0
297 -324 0
-319 -297 324 0
319 -325 0
235 -325 0
-319 -235 325 0
319 -326 0
303 -326 0
-319 -303 326 0
-327 -326 0
327 326 0
323 -328 0
235 -328 0
-323 -235 328 0
323 -329 0
303 -329 0
-323 -303 329 0
243 -330 0
323 -330 0
-243 -323 330 0
323 -331 0
238 -331 0
-323 -238 331 0
297 -332 0
323 -332 0
-297 -323 332 0
-333 -320 0
333 320 0
-334 -325 0
334 325 0
-335 -324 0
335 324 0
-336 -321 0
336 321 0
-337 -322 0
337 322 0
323 -338 0
304 -338 0
-323 -304 338 0
-339 -331 0
339 331 0
-340 -338 0
340 338 0
-341 -329 0
341 329 0
-342 -332 0
342 332 0
-343 -330 0
343 330 0
-344 -328 0
344 328 0
342 -345 0
334 -345 0
-342 -334 345 0
340 -346 0
336 -346 0
-340 -336 346 0
339 -347 0
327 -347 0
-339 -327 347 0
343 -348 0
337 -348 0
-343 -337 348 0
344 -349 0
335 -349 0
-344 -335 349 0
333 -350 0
341 -350 0
-333 -341 350 0
-351 -349 0
351 349 0
-352 -350 0
352 350 0
-353 -347 0
353 347 0
-354 -348 0
354 348 0
-355 -345 0
355 345 0
-356 -346 0
356 346 0
-357 -358 0
357 358 0
-359 -360 0
359 360 0
-361 -362 0
361 362 0
-363 -364 0
363 364 0
-365 -366 0
365 366 0
-367 -368 0
367 368 0
-369 -370 0
369 370 0
-371 -372 0
371 372 0
-373 -374 0
373 374 0
-375 -376 0
375 376 0
-377 -378 0
377 378 0
-379 -380 0
379 380 0
364 -381 0
363 -381 0
-364 -363 381 0
376 -382 0
375 -382 0
-376 -375 382 0
367 -383 0
372 -383 0
-367 -372 383 0
359 -384 0
372 -384 0
-359 -372 384 0
378 -385 0
377 -385 0
-378 -377 385 0
378 -386 0
361 -386 0
-378 -361 386 0
370 -387 0
361 -387 0
-370 -361 387 0
375 -388 0
366 -388 0
-375 -366 388 0
369 -389 0
362 -389 0
-369 -362 389 0
377 -390 0
358 -390 0
-377 -358 390 0
366 -391 0
379 -391 0
-366 -379 391 0
366 -392 0
365 -392 0
-366 -365 392 0
372 -393 0
371 -393 0
-372 -371 393 0
360 -394 0
371 -394 0
-360 -371 394 0
378 -395 0
357 -395 0
-378 -357 395 0
374 -396 0
375 -396 0
-374 -375 396 0
370 -397 0
357 -397 0
-370 -357 397 0
361 -398 0
358 -398 0
-361 -358 398 0
377 -399 0
362 -399 0
-377 -362 399 0
373 -400 0
366 -400 0
-373 -366 400 0
377 -401 0
370 -401 0
-377 -370 401 0
376 -402 0
379 -402 0
-376 -379 402 0
374 -403 0
373 -403 0
-374 -373 403 0
376 -404 0
365 -404 0
-376 -365 404 0
358 -405 0
357 -405 0
-358 -357 405 0
363 -406 0
360 -406 0
-363 -360 406 0
364 -407 0
367 -407 0
-364 -367 407 0
360 -408 0
359 -408 0
-360 -359 408 0
365 -409 0
380 -409 0
-365 -380 409 0
367 -410 0
360 -410 0
-367 -360 410 0
375 -411 0
380 -411 0
-375 -380 411 0
374 -412 0
379 -412 0
-374 -379 412 0
370 -413 0
369 -413 0
-370 -369 413 0
374 -414 0
365 -414 0
-374 -365 414 0
378 -415 0
369 -415 0
-378 -369 415 0
363 -416 0
372 -416 0
-363 -372 416 0
362 -417 0
357 -417 0
-362 -357 417 0
373 -418 0
376 -418 0
-373 -376 418 0
373 -419 0
380 -419 0
-373 -380 419 0
369 -420 0
358 -420 0
-369 -358 420 0
-421 -401 0
421 401 0
-422 -397 0
422 397 0
-423 -395 0
423 395 0
-424 -404 0
424 404 0
-425 -412 0
425 412 0
-426 -382 0
426 382 0
-427 -413 0
427 413 0
-428 -411 0
428 411 0
-429 -388 0
429 388 0
-430 -391 0
430 391 0
-431 -417 0
431 417 0
-432 -390 0
432 390 0
-433 -399 0
433 399 0
-434 -386 0
434 386 0
-435 -389 0
435 389 0
-436 -398 0
436 398 0
-437 -420 0
437 420 0
-438 -409 0
438 409 0
-439 -419 0
439 419 0
-440 -400 0
440 400 0
-441 -414 0
441 414 0
-442 -396 0
442 396 0
-443 -387 0
443 387 0
-444 -403 0
444 403 0
-445 -405 0
445 405 0
-446 -392 0
446 392 0
-447 -402 0
447 402 0
-448 -418 0
448 418 0
-449 -415 0
449 415 0
-450 -385 0
450 385 0
431 -451 0
436 -451 0
-431 -436 451 0
435 -452 0
443 -452 0
-435 -443 452 0
445 -453 0
445 -453 0
-445 -445 453 0
437 -454 0
422 -454 0
-437 -422 454 0
427 -455 0
427 -455 0
-427 -427 455 0
442 -456 0
448 -456 0
-442 -448 456 0
439 -457 0
425 -457 0
-439 -425 457 0
421 -458 0
449 -458 0
-421 -449 458 0
429 -459 0
424 -459 0
-429 -424 459 0
441 -460 0
440 -460 0
-441 -440 460 0
423 -461 0
432 -461 0
-423 -432 461 0
426 -462 0
426 -462 0
-426 -426 462 0
432 -463 0
423 -463 0
-432 -423 463 0
430 -464 0
438 -464 0
-430 -438 464 0
440 -465 0
441 -465 0
-440 -441 465 0
433 -466 0
434 -466 0
-433 -434 466 0
444 -467 0
444 -467 0
-444 -444 467 0
450 -468 0
450 -468 0
-450 -450 468 0
438 -469 0
430 -469 0
-438 -430 469 0
446 -470 0
446 -470 0
-446 -446 470 0
428 -471 0
447 -471 0
-428 -447 471 0
448 -472 0
442 -472 0
-448 -442 472 0
457 -473 0
410 -473 0
-457 -410 473 0
471 -474 0
383 -474 0
-471 -383 474 0
470 -475 0
381 -475 0
-470 -381 475 0
462 -476 0
385 -476 0
-462 -385 476 0
472 -477 0
394 -477 0
-472 -394 477 0
456 -478 0
384 -478 0
-456 -384 478 0
460 -479 0
406 -479 0
-460 -406 479 0
457 -480 0
398 -480 0
-457 -398 480 0
407 -481 0
469 -481 0
-407 -469 481 0
467 -482 0
405 -482 0
-467 -405 482 0
464 -483 0
387 -483 0
-464 -387 483 0
420 -484 0
465 -484 0
-420 -465 484 0
462 -485 0
393 -485 0
-462 -393 485 0
459 -486 0
415 -486 0
-459 -415 486 0
472 -487 0
390 -487 0
-472 -390 487 0
470 -488 0
413 -488 0
-470 -413 488 0
408 -489 0
467 -489 0
-408 -467 489 0
459 -490 0
416 -490 0
-459 -416 490 0
471 -491 0
386 -491 0
-471 -386 491 0
456 -492 0
395 -492 0
-456 -395 492 0
-493 -491 0
493 491 0
-494 -482 0
494 482 0
463 -495 0
478 -495 0
-463 -478 495 0
451 -496 0
473 -496 0
-451 -473 496 0
-497 -487 0
497 487 0
458 -498 0
490 -498 0
-458 -490 498 0
-499 -486 0
499 486 0
455 -500 0
475 -500 0
-455 -475 500 0
489 -501 0
453 -501 0
-489 -453 501 0
454 -502 0
479 -502 0
-454 -479 502 0
-503 -476 0
503 476 0
461 -504 0
477 -504 0
-461 -477 504 0
-505 -484 0
505 484 0
-506 -492 0
506 492 0
-507 -480 0
507 480 0
481 -508 0
452 -508 0
-481 -452 508 0
-509 -483 0
509 483 0
468 -510 0
485 -510 0
-468 -485 510 0
466 -511 0
474 -511 0
-466 -474 511 0
-512 -488 0
512 488 0
-513 -498 0
513 498 0
448 -514 0
506 -514 0
-448 -506 514 0
-515 -508 0
515 508 0
426 -516 0
503 -516 0
-426 -503 516 0
-517 -502 0
517 502 0
-518 -510 0
518 510 0
-519 -496 0
519 496 0
425 -520 0
507 -520 0
-425 -507 520 0
424 -521 0
499 -521 0
-424 -499 521 0
-522 -501 0
522 501 0
430 -523 0
509 -523 0
-430 -509 523 0
446 -524 0
512 -524 0
-446 -512 524 0
-525 -511 0
525 511 0
-526 -500 0
526 500 0
444 -527 0
494 -527 0
-444 -494 527 0
442 -528 0
497 -528 0
-442 -497 528 0
-529 -495 0
529 495 0
-530 -504 0
530 504 0
505 -531 0
441 -531 0
-505 -441 531 0
447 -532 0
493 -532 0
-447 -493 532 0
520 -533 0
519 -533 0
-520 -519 533 0
521 -534 0
513 -534 0
-521 -513 534 0
528 -535 0
530 -535 0
-528 -530 535 0
532 -536 0
525 -536 0
-532 -525 536 0
524 -537 0
526 -537 0
-524 -526 537 0
522 -538 0
527 -538 0
-522 -527 538 0
515 -539 0
523 -539 0
-515 -523 539 0
516 -540 0
518 -540 0
-516 -518 540 0
531 -541 0
517 -541 0
-531 -517 541 0
514 -542 0
529 -542 0
-514 -529 542 0
-543 -542 0
543 542 0
-544 -533 0
544 533 0
-545 -535 0
545 535 0
-546 -537 0
546 537 0
-547 -538 0
547 538 0
-548 -540 0
548 540 0
-549 -534 0
549 534 0
-550 -539 0
550 539 0
-551 -541 0
551 541 0
-552 -536 0
552 536 0
550 -553 0
546 -553 0
-550 -546 553 0
-554 -553 0
554 553 0
550 -555 0
554 -555 0
-550 -554 555 0
-556 -555 0
556 555 0
556 -557 0
554 -557 0
-556 -554 557 0
557 -558 0
552 -558 0
-557 -552 558 0
-559 -557 0
559 557 0
-560 -558 0
560 558 0
559 -561 0
560 -561 0
-559 -560 561 0
561 -562 0
560 -562 0
-561 -560 562 0
562 -563 0
549 -563 0
-562 -549 563 0
-564 -563 0
564 563 0
561 -565 0
564 -565 0
-561 -564 565 0
558 -566 0
564 -566 0
-558 -564 566 0
-567 -566 0
567 566 0
-568 -565 0
568 565 0
567 -569 0
564 -569 0
-567 -564 569 0
-570 -569 0
570 569 0
568 -571 0
570 -571 0
-568 -570 571 0
548 -572 0
571 -572 0
-548 -571 572 0
-573 -572 0
573 572 0
573 -574 0
570 -574 0
-573 -570 574 0
565 -575 0
573 -575 0
-565 -573 575 0
-576 -574 0
576 574 0
573 -577 0
576 -577 0
-573 -576 577 0
-578 -577 0
578 577 0
578 -579 0
575 -579 0
-578 -575 579 0
579 -580 0
543 -580 0
-579 -543 580 0
-581 -580 0
581 580 0
575 -582 0
581 -582 0
-575 -581 582 0
578 -583 0
581 -583 0
-578 -581 583 0
-584 -583 0
584 583 0
-585 -582 0
585 582 0
584 -586 0
581 -586 0
-584 -581 586 0
-587 -586 0
587 586 0
585 -588 0
586 -588 0
-585 -586 588 0
544 -589 0
588 -589 0
-544 -588 589 0
-590 -589 0
590 589 0
582 -591 0
590 -591 0
-582 -590 591 0
590 -592 0
587 -592 0
-590 -587 592 0
-593 -591 0
593 591 0
-594 -592 0
594 592 0
594 -595 0
590 -595 0
-594 -590 595 0
590 -596 0
593 -596 0
-590 -593 596 0
-597 -595 0
597 595 0
-598 -596 0
598 596 0
595 -599 0
598 -599 0
-595 -598 599 0
599 -600 0
551 -600 0
-599 -551 600 0
-601 -600 0
601 600 0
601 -602 0
597 -602 0
-601 -597 602 0
601 -603 0
598 -603 0
-601 -598 603 0
-604 -603 0
604 603 0
-605 -602 0
605 602 0
601 -606 0
605 -606 0
-601 -605 606 0
601 -607 0
604 -607 0
-601 -604 607 0
-608 -607 0
608 607 0
-609 -606 0
609 606 0
609 -610 0
607 -610 0
-609 -607 610 0
610 -611 0
545 -611 0
-610 -545 611 0
-612 -611 0
612 611 0
608 -613 0
612 -613 0
-608 -612 613 0
609 -614 0
612 -614 0
-609 -612 614 0
-615 -614 0
615 614 0
-616 -613 0
616 613 0
615 -617 0
612 -617 0
-615 -612 617 0
616 -618 0
612 -618 0
-616 -612 618 0
-619 -617 0
619 617 0
-620 -618 0
620 618 0
620 -621 0
619 -621 0
-620 -619 621 0
621 -622 0
547 -622 0
-621 -547 622 0
-623 -622 0
623 622 0
623 -624 0
619 -624 0
-623 -619 624 0
620 -625 0
623 -625 0
-620 -623 625 0
-626 -624 0
626 624 0
-627 -625 0
627 625 0
623 -628 0
627 -628 0
-623 -627 628 0
626 -629 0
623 -629 0
-626 -623 629 0
-630 -629 0
630 629 0
-631 -628 0
631 628 0
631 -632 0
629 -632 0
-631 -629 632 0
628 -633 0
630 -633 0
-628 -630 633 0
631 -634 0
630 -634 0
-631 -630 634 0
-635 -634 0
635 634 0
362 -636 0
632 -636 0
-362 -632 636 0
634 -637 0
358 -637 0
-634 -358 637 0
-638 -632 0
638 632 0
368 -639 0
632 -639 0
-368 -632 639 0
376 -640 0
633 -640 0
-376 -633 640 0
364 -641 0
632 -641 0
-364 -632 641 0
632 -642 0
380 -642 0
-632 -380 642 0
374 -643 0
634 -643 0
-374 -634 643 0
634 -644 0
360 -644 0
-634 -360 644 0
366 -645 0
632 -645 0
-366 -632 645 0
378 -646 0
633 -646 0
-378 -633 646 0
633 -647 0
372 -647 0
-633 -372 647 0
370 -648 0
632 -648 0
-370 -632 648 0
-649 -633 0
649 633 0
378 -650 0
649 -650 0
-378 -649 650 0
366 -651 0
638 -651 0
-366 -638 651 0
-652 -647 0
652 647 0
649 -653 0
372 -653 0
-649 -372 653 0
-654 -639 0
654 639 0
-655 -643 0
655 643 0
-656 -637 0
656 637 0
-657 -644 0
657 644 0
376 -658 0
649 -658 0
-376 -649 658 0
362 -659 0
638 -659 0
-362 -638 659 0
-660 -645 0
660 645 0
360 -661 0
635 -661 0
-360 -635 661 0
374 -662 0
635 -662 0
-374 -635 662 0
364 -663 0
638 -663 0
-364 -638 663 0
635 -664 0
358 -664 0
-635 -358 664 0
-665 -642 0
665 642 0
368 -666 0
638 -666 0
-368 -638 666 0
-667 -646 0
667 646 0
380 -668 0
638 -668 0
-380 -638 668 0
-669 -636 0
669 636 0
-670 -640 0
670 640 0
370 -671 0
638 -671 0
-370 -638 671 0
-672 -641 0
672 641 0
-673 -648 0
673 648 0
-674 -671 0
674 671 0
-675 -663 0
675 663 0
-676 -659 0
676 659 0
-677 -664 0
677 664 0
-678 -653 0
678 653 0
-679 -651 0
679 651 0
-680 -668 0
680 668 0
-681 -666 0
681 666 0
-682 -662 0
682 662 0
-683 -658 0
683 658 0
-684 -661 0
684 661 0
-685 -650 0
685 650 0
669 -686 0
674 -686 0
-669 -674 686 0
654 -687 0
675 -687 0
-654 -675 687 0
660 -688 0
680 -688 0
-660 -680 688 0
672 -689 0
681 -689 0
-672 -681 689 0
679 -690 0
665 -690 0
-679 -665 690 0
676 -691 0
673 -691 0
-676 -673 691 0
-692 -686 0
692 686 0
-693 -688 0
693 688 0
-694 -690 0
694 690 0
-695 -691 0
695 691 0
-696 -689 0
696 689 0
-697 -687 0
697 687 0
694 -698 0
633 -698 0
-694 -633 698 0
695 -699 0
633 -699 0
-695 -633 699 0
649 -700 0
696 -700 0
-649 -696 700 0
649 -701 0
697 -701 0
-649 -697 701 0
633 -702 0
696 -702 0
-633 -696 702 0
633 -703 0
697 -703 0
-633 -697 703 0
694 -704 0
649 -704 0
-694 -649 704 0
693 -705 0
649 -705 0
-693 -649 705 0
633 -706 0
692 -706 0
-633 -692 706 0
695 -707 0
649 -707 0
-695 -649 707 0
692 -708 0
649 -708 0
-692 -649 708 0
693 -709 0
633 -709 0
-693 -633 709 0
-710 -706 0
710 706 0
-711 -701 0
711 701 0
-712 -698 0
712 698 0
-713 -699 0
713 699 0
-714 -700 0
714 700 0
-715 -705 0
715 705 0
-716 -704 0
716 704 0
-717 -703 0
717 703 0
-718 -707 0
718 707 0
-719 -702 0
719 702 0
-720 -709 0
720 709 0
-721 -708 0
721 708 0
714 -722 0
652 -722 0
-714 -652 722 0
720 -723 0
683 -723 0
-720 -683 723 0
667 -724 0
718 -724 0
-667 -718 724 0
719 -725 0
678 -725 0
-719 -678 725 0
717 -726 0
711 -726 0
-717 -711 726 0
710 -727 0
721 -727 0
-710 -721 727 0
685 -728 0
713 -728 0
-685 -713 728 0
716 -729 0
712 -729 0
-716 -712 729 0
670 -730 0
715 -730 0
-670 -715 730 0
-731 -730 0
731 730 0
-732 -728 0
732 728 0
-733 -722 0
733 722 0
-734 -729 0
734 729 0
-735 -723 0
735 723 0
-736 -724 0
736 724 0
-737 -727 0
737 727 0
-738 -725 0
738 725 0
-739 -726 0
739 726 0
736 -740 0
635 -740 0
-736 -635 740 0
635 -741 0
737 -741 0
-635 -737 741 0
735 -742 0
635 -742 0
-735 -635 742 0
634 -743 0
731 -743 0
-634 -731 743 0
735 -744 0
634 -744 0
-735 -634 744 0
736 -745 0
634 -745 0
-736 -634 745 0
634 -746 0
738 -746 0
-634 -738 746 0
634 -747 0
739 -747 0
-634 -739 747 0
733 -748 0
635 -748 0
-733 -635 748 0
733 -749 0
634 -749 0
-733 -634 749 0
635 -750 0
739 -750 0
-635 -739 750 0
635 -751 0
738 -751 0
-635 -738 751 0
635 -752 0
731 -752 0
-635 -731 752 0
732 -753 0
635 -753 0
-732 -635 753 0
732 -754 0
634 -754 0
-732 -634 754 0
634 -755 0
737 -755 0
-634 -737 755 0
734 -756 0
635 -756 0
-734 -635 756 0
734 -757 0
634 -757 0
-734 -634 757 0
-758 -743 0
758 743 0
-759 -747 0
759 747 0
-760 -757 0
760 757 0
-761 -755 0
761 755 0
-762 -753 0
762 753 0
-763 -748 0
763 748 0
-764 -742 0
764 742 0
-765 -741 0
765 741 0
-766 -756 0
766 756 0
-767 -751 0
767 751 0
-768 -750 0
768 750 0
-769 -745 0
769 745 0
-770 -752 0
770 752 0
-771 -749 0
771 749 0
-772 -744 0
772 744 0
-773 -740 0
773 740 0
-774 -754 0
774 754 0
-775 -746 0
775 746 0
766 -776 0
772 -776 0
-766 -772 776 0
682 -777 0
758 -777 0
-682 -758 777 0
763 -778 0
657 -778 0
-763 -657 778 0
765 -779 0
774 -779 0
-765 -774 779 0
768 -780 0
775 -780 0
-768 -775 780 0
771 -781 0
684 -781 0
-771 -684 781 0
656 -782 0
773 -782 0
-656 -773 782 0
677 -783 0
769 -783 0
-677 -769 783 0
767 -784 0
759 -784 0
-767 -759 784 0
770 -785 0
655 -785 0
-770 -655 785 0
762 -786 0
761 -786 0
-762 -761 786 0
760 -787 0
764 -787 0
-760 -764 787 0
-788 -787 0
788 787 0
-789 -786 0
789 786 0
-790 -784 0
790 784 0
-791 -781 0
791 781 0
-792 -778 0
792 778 0
-793 -779 0
793 779 0
-794 -783 0
794 783 0
-795 -780 0
795 780 0
-796 -776 0
796 776 0
-797 -785 0
797 785 0
-798 -782 0
798 782 0
-799 -777 0
799 777 0
788 -800 0
777 -800 0
-788 -777 800 0
787 -801 0
788 -801 0
-787 -788 801 0
783 -802 0
793 -802 0
-783 -793 802 0
783 -803 0
789 -803 0
-783 -789 803 0
794 -804 0
786 -804 0
-794 -786 804 0
787 -805 0
799 -805 0
-787 -799 805 0
776 -806 0
799 -806 0
-776 -799 806 0
796 -807 0
777 -807 0
-796 -777 807 0
789 -808 0
779 -808 0
-789 -779 808 0
786 -809 0
793 -809 0
-786 -793 809 0
780 -810 0
795 -810 0
-780 -795 810 0
781 -811 0
790 -811 0
-781 -790 811 0
795 -812 0
781 -812 0
-795 -781 812 0
788 -813 0
776 -813 0
-788 -776 813 0
786 -814 0
789 -814 0
-786 -789 814 0
795 -815 0
784 -815 0
-795 -784 815 0
779 -816 0
793 -816 0
-779 -793 816 0
787 -817 0
796 -817 0
-787 -796 817 0
794 -818 0
779 -818 0
-794 -779 818 0
776 -819 0
796 -819 0
-776 -796 819 0
784 -820 0
790 -820 0
-784 -790 820 0
-821 -813 0
821 813 0
-822 -817 0
822 817 0
-823 -800 0
823 800 0
-824 -804 0
824 804 0
-825 -816 0
825 816 0
-826 -807 0
826 807 0
-827 -803 0
827 803 0
-828 -806 0
828 806 0
-829 -818 0
829 818 0
-830 -808 0
830 808 0
-831 -805 0
831 805 0
-832 -801 0
832 801 0
-833 -809 0
833 809 0
-834 -802 0
834 802 0
-835 -819 0
835 819 0
-836 -814 0
836 814 0
827 -837 0
824 -837 0
-827 -824 837 0
835 -838 0
835 -838 0
-835 -835 838 0
831 -839 0
823 -839 0
-831 -823 839 0
836 -840 0
836 -840 0
-836 -836 840 0
821 -841 0
822 -841 0
-821 -822 841 0
828 -842 0
826 -842 0
-828 -826 842 0
825 -843 0
825 -843 0
-825 -825 843 0
832 -844 0
832 -844 0
-832 -832 844 0
829 -845 0
834 -845 0
-829 -834 845 0
830 -846 0
833 -846 0
-830 -833 846 0
823 -847 0
831 -847 0
-823 -831 847 0
844 -848 0
820 -848 0
-844 -820 848 0
841 -849 0
815 -849 0
-841 -815 849 0
844 -850 0
814 -850 0
-844 -814 850 0
842 -851 0
812 -851 0
-842 -812 851 0
847 -852 0
811 -852 0
-847 -811 852 0
838 -853 0
810 -853 0
-838 -810 853 0
841 -854 0
809 -854 0
-841 -809 854 0
842 -855 0
802 -855 0
-842 -802 855 0
838 -856 0
816 -856 0
-838 -816 856 0
803 -857 0
839 -857 0
-803 -839 857 0
-858 -854 0
858 854 0
-859 -850 0
859 850 0
845 -860 0
851 -860 0
-845 -851 860 0
-861 -855 0
861 855 0
846 -862 0
849 -862 0
-846 -849 862 0
840 -863 0
848 -863 0
-840 -848 863 0
843 -864 0
853 -864 0
-843 -853 864 0
-865 -856 0
865 856 0
837 -866 0
852 -866 0
-837 -852 866 0
-867 -857 0
867 857 0
822 -868 0
858 -868 0
-822 -858 868 0
832 -869 0
859 -869 0
-832 -859 869 0
835 -870 0
865 -870 0
-835 -865 870 0
826 -871 0
861 -871 0
-826 -861 871 0
867 -872 0
823 -872 0
-867 -823 872 0
-873 -860 0
873 860 0
-874 -866 0
874 866 0
-875 -864 0
875 864 0
-876 -862 0
876 862 0
-877 -863 0
877 863 0
872 -878 0
874 -878 0
-872 -874 878 0
870 -879 0
875 -879 0
-870 -875 879 0
868 -880 0
876 -880 0
-868 -876 880 0
871 -881 0
873 -881 0
-871 -873 881 0
869 -882 0
877 -882 0
-869 -877 882 0
-883 -880 0
883 880 0
-884 -878 0
884 878 0
-885 -879 0
885 879 0
-886 -882 0
886 882 0
-887 -881 0
887 881 0
886 -888 0
884 -888 0
-886 -884 888 0
-889 -888 0
889 888 0
889 -890 0
884 -890 0
-889 -884 890 0
-891 -890 0
891 890 0
889 -892 0
891 -892 0
-889 -891 892 0
-893 -892 0
893 892 0
887 -894 0
892 -894 0
-887 -892 894 0
-895 -894 0
895 894 0
895 -896 0
893 -896 0
-895 -893 896 0
895 -897 0
896 -897 0
-895 -896 897 0
883 -898 0
897 -898 0
-883 -897 898 0
-899 -898 0
899 898 0
899 -900 0
896 -900 0
-899 -896 900 0
894 -901 0
899 -901 0
-894 -899 901 0
-902 -901 0
902 901 0
-903 -900 0
903 900 0
899 -904 0
902 -904 0
-899 -902 904 0
-905 -904 0
905 904 0
905 -906 0
903 -906 0
-905 -903 906 0
906 -907 0
885 -907 0
-906 -885 907 0
-908 -907 0
908 907 0
905 -909 0
908 -909 0
-905 -908 909 0
900 -910 0
908 -910 0
-900 -908 910 0
-911 -910 0
911 910 0
-912 -909 0
912 909 0
912 -913 0
908 -913 0
-912 -908 913 0
910 -914 0
913 -914 0
-910 -913 914 0
-915 -913 0
915 913 0
791 -916 0
914 -916 0
-791 -914 916 0
-917 -914 0
917 914 0
789 -918 0
914 -918 0
-789 -914 918 0
914 -919 0
790 -919 0
-914 -790 919 0
911 -920 0
915 -920 0
-911 -915 920 0
788 -921 0
914 -921 0
-788 -914 921 0
914 -922 0
799 -922 0
-914 -799 922 0
794 -923 0
914 -923 0
-794 -914 923 0
795 -924 0
920 -924 0
-795 -920 924 0
-925 -922 0
925 922 0
-926 -923 0
926 923 0
790 -927 0
917 -927 0
-790 -917 927 0
-928 -918 0
928 918 0
920 -929 0
796 -929 0
-920 -796 929 0
-930 -920 0
930 920 0
789 -931 0
917 -931 0
-789 -917 931 0
-932 -921 0
932 921 0
-933 -916 0
933 916 0
791 -934 0
917 -934 0
-791 -917 934 0
-935 -919 0
935 919 0
788 -936 0
917 -936 0
-788 -917 936 0
920 -937 0
793 -937 0
-920 -793 937 0
794 -938 0
917 -938 0
-794 -917 938 0
799 -939 0
917 -939 0
-799 -917 939 0
-940 -937 0
940 937 0
-941 -938 0
941 938 0
930 -942 0
793 -942 0
-930 -793 942 0
-943 -924 0
943 924 0
-944 -929 0
944 929 0
-945 -927 0
945 927 0
-946 -936 0
946 936 0
795 -947 0
930 -947 0
-795 -930 947 0
930 -948 0
796 -948 0
-930 -796 948 0
-949 -939 0
949 939 0
-950 -934 0
950 934 0
-951 -931 0
951 931 0
-952 -948 0
952 948 0
946 -953 0
925 -953 0
-946 -925 953 0
933 -954 0
945 -954 0
-933 -945 954 0
-955 -942 0
955 942 0
-956 -947 0
956 947 0
932 -957 0
949 -957 0
-932 -949 957 0
941 -958 0
928 -958 0
-941 -928 958 0
935 -959 0
950 -959 0
-935 -950 959 0
926 -960 0
951 -960 0
-926 -951 960 0
-961 -959 0
961 959 0
-962 -953 0
962 953 0
-963 -957 0
963 957 0
-964 -954 0
964 954 0
-965 -960 0
965 960 0
-966 -958 0
966 958 0
920 -967 0
964 -967 0
-920 -964 967 0
920 -968 0
965 -968 0
-920 -965 968 0
966 -969 0
930 -969 0
-966 -930 969 0
962 -970 0
920 -970 0
-962 -920 970 0
966 -971 0
920 -971 0
-966 -920 971 0
920 -972 0
961 -972 0
-920 -961 972 0
930 -973 0
964 -973 0
-930 -964 973 0
963 -974 0
930 -974 0
-963 -930 974 0
930 -975 0
965 -975 0
-930 -965 975 0
930 -976 0
961 -976 0
-930 -961 976 0
962 -977 0
930 -977 0
-962 -930 977 0
963 -978 0
920 -978 0
-963 -920 978 0
-979 -972 0
979 972 0
-980 -978 0
980 978 0
-981 -968 0
981 968 0
-982 -971 0
982 971 0
-983 -974 0
983 974 0
-984 -973 0
984 973 0
-985 -969 0
985 969 0
-986 -975 0
986 975 0
-987 -977 0
987 977 0
-988 -976 0
988 976 0
-989 -970 0
989 970 0
-990 -967 0
990 967 0
940 -991 0
985 -991 0
-940 -985 991 0
988 -992 0
943 -992 0
-988 -943 992 0
986 -993 0
981 -993 0
-986 -981 993 0
952 -994 0
980 -994 0
-952 -980 994 0
955 -995 0
982 -995 0
-955 -982 995 0
979 -996 0
956 -996 0
-979 -956 996 0
984 -997 0
990 -997 0
-984 -990 997 0
983 -998 0
944 -998 0
-983 -944 998 0
989 -999 0
987 -999 0
-989 -987 999 0
-1000 -996 0
1000 996 0
-1001 -998 0
1001 998 0
-1002 -993 0
1002 993 0
-1003 -997 0
1003 997 0
-1004 -991 0
1004 991 0
-1005 -999 0
1005 999 0
-1006 -992 0
1006 992 0
-1007 -994 0
1007 994 0
-1008 -995 0
1008 995 0
996 -1009 0
1003 -1009 0
-996 -1003 1009 0
1005 -1010 0
994 -1010 0
-1005 -994 1010 0
999 -1011 0
1005 -1011 0
-999 -1005 1011 0
993 -1012 0
1002 -1012 0
-993 -1002 1012 0
999 -1013 0
1007 -1013 0
-999 -1007 1013 0
1008 -1014 0
993 -1014 0
-1008 -993 1014 0
997 -1015 0
1003 -1015 0
-997 -1003 1015 0
995 -1016 0
1002 -1016 0
-995 -1002 1016 0
-1017 -1013 0
1017 1013 0
-1018 -1011 0
1018 1011 0
-1019 -1014 0
1019 1014 0
-1020 -1010 0
1020 1010 0
-1021 -1016 0
1021 1016 0
-1022 -1012 0
1022 1012 0
1019 -1023 0
1021 -1023 0
-1019 -1021 1023 0
1022 -1024 0
1022 -1024 0
-1022 -1022 1024 0
1017 -1025 0
1020 -1025 0
-1017 -1020 1025 0
1018 -1026 0
1018 -1026 0
-1018 -1018 1026 0
1026 -1027 0
1015 -1027 0
-1026 -1015 1027 0
1025 -1028 0
1009 -1028 0
-1025 -1009 1028 0
1012 -1029 0
1026 -1029 0
-1012 -1026 1029 0
1025 -1030 0
1016 -1030 0
-1025 -1016 1030 0
-1031 -1030 0
1031 1030 0
-1032 -1029 0
1032 1029 0
1023 -1033 0
1028 -1033 0
-1023 -1028 1033 0
1024 -1034 0
1027 -1034 0
-1024 -1027 1034 0
-1035 -1034 0
1035 1034 0
1032 -1036 0
1018 -1036 0
-1032 -1018 1036 0
1020 -1037 0
1031 -1037 0
-1020 -1031 1037 0
-1038 -1033 0
1038 1033 0
1037 -1039 0
1038 -1039 0
-1037 -1038 1039 0
1036 -1040 0
1035 -1040 0
-1036 -1035 1040 0
-1041 -1039 0
1041 1039 0
-1042 -1040 0
1042 1040 0
1041 -1043 0
1042 -1043 0
-1041 -1042 1043 0
-1044 -1043 0
1044 1043 0
1044 -1045 0
1041 -1045 0
-1044 -1041 1045 0
-1046 -1045 0
1046 1045 0
1044 -1047 0
1046 -1047 0
-1044 -1046 1047 0
1008 -1048 0
1047 -1048 0
-1008 -1047 1048 0
1047 -1049 0
1007 -1049 0
-1047 -1007 1049 0
-1050 -1047 0
1050 1047 0
1000 -1051 0
1047 -1051 0
-1000 -1047 1051 0
1047 -1052 0
1002 -1052 0
-1047 -1002 1052 0
1047 -1053 0
1003 -1053 0
-1047 -1003 1053 0
1005 -1054 0
1047 -1054 0
-1005 -1047 1054 0
1050 -1055 0
1002 -1055 0
-1050 -1002 1055 0
-1056 -1052 0
1056 1052 0
-1057 -1048 0
1057 1048 0
-1058 -1049 0
1058 1049 0
-1059 -1054 0
1059 1054 0
1050 -1060 0
1003 -1060 0
-1050 -1003 1060 0
1005 -1061 0
1050 -1061 0
-1005 -1050 1061 0
1000 -1062 0
1050 -1062 0
-1000 -1050 1062 0
-1063 -1053 0
1063 1053 0
1050 -1064 0
1007 -1064 0
-1050 -1007 1064 0
-1065 -1051 0
1065 1051 0
1008 -1066 0
1050 -1066 0
-1008 -1050 1066 0
-1067 -1064 0
1067 1064 0
-1068 -1062 0
1068 1062 0
-1069 -1055 0
1069 1055 0
-1070 -1061 0
1070 1061 0
-1071 -1066 0
1071 1066 0
-1072 -1060 0
1072 1060 0
1059 -1073 0
1067 -1073 0
-1059 -1067 1073 0
1068 -1074 0
1063 -1074 0
-1068 -1063 1074 0
1065 -1075 0
1072 -1075 0
-1065 -1072 1075 0
1069 -1076 0
1057 -1076 0
-1069 -1057 1076 0
1056 -1077 0
1071 -1077 0
-1056 -1071 1077 0
1058 -1078 0
1070 -1078 0
-1058 -1070 1078 0
-1079 -1076 0
1079 1076 0
-1080 -1075 0
1080 1075 0
-1081 -1074 0
1081 1074 0
-1082 -1073 0
1082 1073 0
-1083 -1078 0
1083 1078 0
-1084 -1077 0
1084 1077 0
-25 368 0
25 -368 0
-8 362 0
8 -362 0
-22 380 0
22 -380 0
-20 364 0
20 -364 0
-12 370 0
12 -370 0
-10 366 0
10 -366 0
-14 372 0
14 -372 0
-6 378 0
6 -378 0
-18 376 0
18 -376 0
-4 360 0
4 -360 0
-2 358 0
2 -358 0
-16 374 0
16 -374 0
-241 -792 -1085 0
241 792 -1085 0
241 -792 1085 0
-241 792 1085 0
-237 -798 -1086 0
237 798 -1086 0
237 -798 1086 0
-237 798 1086 0
-236 -797 -1087 0
236 797 -1087 0
236 -797 1087 0
-236 797 1087 0
-302 -1006 -1088 0
302 1006 -1088 0
302 -1006 1088 0
-302 1006 1088 0
-301 -1004 -1089 0
301 1004 -1089 0
301 -1004 1089 0
-301 1004 1089 0
-296 -1001 -1090 0
296 1001 -1090 0
296 -1001 1090 0
-296 1001 1090 0
-355 -1081 -1091 0
355 1081 -1091 0
355 -1081 1091 0
-355 1081 1091 0
-356 -1084 -1092 0
356 1084 -1092 0
356 -1084 1092 0
-356 1084 1092 0
-352 -1082 -1093 0
352 1082 -1093 0
352 -1082 1093 0
-352 1082 1093 0
-351 -1080 -1094 0
351 1080 -1094 0
351 -1080 1094 0
-351 1080 1094 0
-354 -1079 -1095 0
354 1079 -1095 0
354 -1079 1095 0
-354 1079 1095 0
-353 -1083 -1096 0
353 1083 -1096 0
353 -1083 1096 0
-353 1083 1096 0
1085 1086 1087 1088 1089 1090 1091 1092 1093 1094 1095 1096 0
